2
1000 1000 
50
188 143 30
224 301 72
195 278 4
269 139 88
110 353 54
388 285 64
367 303 90
314 272 26
297 160 94
182 334 28
236 359 72
225 203 49
315 232 54
175 313 19
169 113 28
166 298 61
131 135 84
132 191 23
334 232 67
105 125 53
111 136 54
220 333 16
396 281 9
109 249 54
123 301 77
105 306 80
123 229 68
343 137 39
132 198 25
156 377 74
281 141 14
176 257 53
205 392 35
237 312 100
237 184 39
273 274 82
210 350 62
316 278 80
357 325 94
201 256 4
112 240 100
160 242 93
209 330 95
226 369 8
279 327 7
234 271 90
358 366 84
117 280 10
277 379 13
207 230 63
